data/benchmarks/bayes/75-14-3-q.cnf
p cnf 924 899
c weights 0.428476 0.5715239999999999 1 1 1 1 1 1 1 1 1 1 1 1 1 1 1 1 1 1 1 1 1 1 1 1 1 1 1 1 1 1 1 1 1 1 1 1 1 1 1 1 1 1 1 1 1 1 1 1 1 1 1 1 1 1 1 1 1 1 1 1 1 1 1 1 1 1 1 1 1 1 1 1 1 1 1 1 1 1 1 1 1 1 1 1 1 1 1 1 1 1 1 1 1 1 1 1 1 1 1 1 1 1 1 1 1 1 1 1 1 1 1 1 1 1 1 1 1 1 1 1 1 1 1 1 1 1 1 1 1 1 1 1 1 1 1 1 1 1 1 1 1 1 1 1 1 1 1 1 1 1 1 1 1 1 1 1 1 1 1 1 1 1 1 1 1 1 1 1 1 1 1 1 1 1 1 1 1 1 1 1 1 1 1 1 1 1 1 1 1 1 1 1 1 1 1 1 1 1 1 1 1 1 1 1 1 1 1 1 1 1 1 1 1 1 1 1 1 1 1 1 1 1 1 1 1 1 1 1 1 1 1 1 1 1 1 1 1 1 1 1 1 1 1 1 1 1 1 1 1 1 1 1 1 1 1 1 1 1 1 1 1 1 1 1 1 1 1 1 1 1 1 1 1 1 1 1 1 1 1 1 1 1 1 1 1 1 1 1 1 1 1 1 1 1 1 1 1 1 1 1 1 1 1 1 1 1 1 1 1 1 1 1 1 1 1 1 1 1 1 1 1 1 1 1 1 1 1 1 1 1 1 1 1 1 1 1 1 1 1 1 1 1 1 1 1 1 1 1 1 1 1 1 1 1 1 1 1 1 1 1 1 1 1 1 1 1 1 1 1 1 1 1 1 1 1 1 1 1 1 1 1 1 1 1 1 1 1 1 1 1 0.181836 0.818164 0.00334783 0.99665217 0.5 0.5 0.5 0.5 0.699263 0.30073700000000003 0.236397 0.763603 0.5 0.5 0.5 0.5 0.843128 0.156872 0.776769 0.22323099999999996 0.5 0.5 0.5 0.5 0.5 0.5 0.5 0.5 0.5 0.5 0.5 0.5 0.5 0.5 0.5 0.5 0.5 0.5 0.5 0.5 0.947736 0.05226399999999998 0.920456 0.07954399999999995 0.5 0.5 0.5 0.5 0.0328862 0.9671138 0.777606 0.22239399999999998 0.5 0.5 0.5 0.5 0.927913 0.07208700000000001 0.00984465 0.99015535 0.726093 0.273907 0.627175 0.37282499999999996 0.5 0.5 0.5 0.5 0.5 0.5 0.5 0.5 0.5 0.5 0.5 0.5 0.5 0.5 0.5 0.5 0.5 0.5 0.5 0.5 0.5 0.5 0.5 0.5 0.5 0.5 0.5 0.5 0.5 0.5 0.5 0.5 0.5 0.5 0.5 0.5 0.5 0.5 0.5 0.5 0.5 0.5 0.5 0.5 0.5 0.5 0.5 0.5 0.5 0.5 0.5 0.5 0.5 0.5 0.5 0.5 0.5 0.5 0.5 0.5 0.5 0.5 0.5 0.5 0.5 0.5 0.5 0.5 0.5 0.5 0.5 0.5 0.77431 0.22568999999999995 0.717504 0.28249599999999997 0.803457 0.19654300000000002 0.160249 0.839751 0.5 0.5 0.5 0.5 0.5 0.5 0.5 0.5 0.5 0.5 0.5 0.5 0.5 0.5 0.5 0.5 0.5 0.5 0.5 0.5 0.5 0.5 0.5 0.5 0.5 0.5 0.5 0.5 0.5 0.5 0.5 0.5 0.5 0.5 0.5 0.5 0.5 0.5 0.5 0.5 0.5 0.5 0.5 0.5 0.5 0.5 0.5 0.5 0.5 0.5 0.5 0.5 0.5 0.5 0.5 0.5 0.5 0.5 0.5 0.5 0.5 0.5 0.5 0.5 0.5 0.5 0.5 0.5 0.5 0.5 0.5 0.5 0.5 0.5 0.5 0.5 0.5 0.5 0.5 0.5 0.5 0.5 0.5 0.5 0.5 0.5 0.5 0.5 0.5 0.5 0.5 0.5 0.5 0.5 0.5 0.5 0.5 0.5 0.5 0.5 0.423902 0.576098 0.4914 0.5085999999999999 0.977457 0.02254299999999998 0.321585 0.678415 0.5 0.5 0.5 0.5 0.5 0.5 0.5 0.5 0.5 0.5 0.5 0.5 0.5 0.5 0.5 0.5 0.5 0.5 0.5 0.5 0.5 0.5 0.5 0.5 0.5 0.5 0.5 0.5 0.5 0.5 0.5 0.5 0.5 0.5 0.5 0.5 0.5 0.5 0.5 0.5 0.5 0.5 0.5 0.5 0.5 0.5 0.5 0.5 0.5 0.5 0.5 0.5 0.5 0.5 0.5 0.5 0.5 0.5 0.5 0.5 0.00130128 0.99869872 0.220753 0.779247 0.0163481 0.9836519 0.710153 0.28984699999999997 0.5 0.5 0.5 0.5 0.5 0.5 0.5 0.5 0.5 0.5 0.5 0.5 0.5 0.5 0.5 0.5 0.5 0.5 0.5 0.5 0.5 0.5 0.5 0.5 0.5 0.5 0.5 0.5 0.5 0.5 0.5 0.5 0.5 0.5 0.5 0.5 0.5 0.5 0.5 0.5 0.5 0.5 0.5 0.5 0.5 0.5 0.5 0.5 0.5 0.5 0.5 0.5 0.5 0.5 0.5 0.5 0.5 0.5 0.5 0.5 0.5 0.5 0.5 0.5 0.5 0.5 0.5 0.5 0.5 0.5 0.5 0.5 0.5 0.5 0.5 0.5 0.5 0.5 0.5 0.5 0.5 0.5 0.5 0.5 0.5 0.5 0.5 0.5 0.5 0.5 0.5 0.5 0.5 0.5 0.5 0.5 0.5 0.5 0.5 0.5 0.5 0.5 0.5 0.5 0.5 0.5 0.5 0.5 0.5 0.5 0.5 0.5 0.5 0.5 0.5 0.5 0.5 0.5 0.5 0.5 0.5 0.5 0.5 0.5 0.5 0.5 0.5 0.5 0.5 0.5 0.5 0.5 0.5 0.5 0.5 0.5 0.5 0.5 0.5 0.5 0.333147 0.6668529999999999 0.278492 0.721508 0.226524 0.773476 0.0547654 0.9452346 0.5 0.5 0.5 0.5 0.5 0.5 0.5 0.5 0.491272 0.5087280000000001 0.694859 0.305141 0.0866759 0.9133241 0.957506 0.04249400000000003 0.5 0.5 0.5 0.5 0.5 0.5 0.5 0.5 0.5 0.5 0.5 0.5 0.481494 0.518506 0.655733 0.344267 0.902291 0.09770900000000005 0.154216 0.845784 0.5 0.5 0.5 0.5 0.5 0.5 0.5 0.5 0.5 0.5 0.5 0.5 0.5 0.5 0.5 0.5 0.465186 0.534814 0.604689 0.39531099999999997 0.646677 0.35332300000000005 0.436952 0.563048 0.5 0.5 0.5 0.5 0.5 0.5 0.5 0.5 0.152161 0.847839 0.696389 0.30361099999999996 0.551856 0.448144 0.611194 0.388806 0.5 0.5 0.5 0.5 0.5 0.5 0.5 0.5 0.525545 0.47445499999999996 0.176971 0.823029 0.937896 0.06210400000000005 0.6503 0.3497 0.5 0.5 0.5 0.5 0.5 0.5 0.5 0.5 0.223349 0.776651 0.45239 0.5476099999999999 0.402912 0.5970880000000001 0.660301 0.339699 0.5 0.5 0.5 0.5 0.5 0.5 0.5 0.5 0.5 0.5 0.5 0.5 0.5 0.5 0.5 0.5 0.5 0.5 0.5 0.5 0.5 0.5 0.5 0.5 0.5 0.5 0.5 0.5 0.5 0.5 0.5 0.5 0.5 0.5 0.5 0.5 0.5 0.5 0.5 0.5 0.5 0.5 0.5 0.5 0.5 0.5 0.5 0.5 0.5 0.5 0.5 0.5 0.5 0.5 0.5 0.5 0.5 0.5 0.5 0.5 0.5 0.5 0.5 0.5 0.5 0.5 0.5 0.5 0.5 0.5 0.5 0.5 0.5 0.5 0.5 0.5 0.589627 0.410373 0.615616 0.38438399999999995 0.501758 0.49824199999999996 0.283383 0.7166170000000001 0.503595 0.496405 0.978719 0.021280999999999994 0.0176244 0.9823756 0.353132 0.646868 0.5 0.5 0.5 0.5 0.5 0.5 0.5 0.5 0.5 0.5 0.5 0.5 0.5 0.5 0.5 0.5 0.5 0.5 0.5 0.5 0.5 0.5 0.5 0.5 0.5 0.5 0.5 0.5 0.5 0.5 0.5 0.5 0.5 0.5 0.5 0.5 0.5 0.5 0.5 0.5 0.5 0.5 0.5 0.5 0.5 0.5 0.5 0.5 0.5 0.5 0.5 0.5 0.5 0.5 0.5 0.5 0.5 0.5 0.5 0.5 0.5 0.5 0.5 0.5 0.5 0.5 0.5 0.5 0.5 0.5 0.5 0.5 0.5 0.5 0.5 0.5 0.5 0.5 0.5 0.5 0.5 0.5 0.5 0.5 0.5 0.5 0.5 0.5 0.5 0.5 0.5 0.5 0.18517 0.8148299999999999 0.539017 0.46098300000000003 0.29735 0.70265 0.574761 0.42523900000000003 0.0122261 0.9877739 0.249147 0.750853 0.703725 0.29627499999999996 0.610805 0.38919499999999996 0.5 0.5 0.5 0.5 0.5 0.5 0.5 0.5 0.5 0.5 0.5 0.5 0.5 0.5 0.5 0.5 0.5 0.5 0.5 0.5 0.5 0.5 0.5 0.5 0.5 0.5 0.5 0.5 0.5 0.5 0.5 0.5 0.149784 0.850216 0.917425 0.08257499999999995 0.5 0.5 0.5 0.5 0.5 0.5 0.5 0.5 0.0701651 0.9298349 0.0973281 0.9026719 0.40497 0.59503 0.920623 0.07937700000000003 0.5 0.5 0.5 0.5 0.5 0.5 0.5 0.5 0.5 0.5 0.5 0.5 0.5 0.5 0.5 0.5 0.5 0.5 0.5 0.5 0.5 0.5 0.5 0.5 0.5 0.5 0.5 0.5 0.5 0.5 0.5 0.5 0.5 0.5 0.5 0.5 0.5 0.5 0.5 0.5 0.590896 0.409104 0.743574 0.25642600000000004 0.160703 0.839297 0.511518 0.48848199999999997 0.017836 0.982164 0.775527 0.22447300000000003 0.719776 0.28022400000000003 0.0178718 0.9821282 0.5 0.5 0.5 0.5 0.5 0.5 0.5 0.5 0.0561615 0.9438385 0.866543 0.13345700000000005 0.525904 0.47409599999999996 0.564358 0.435642 0.5 0.5 0.5 0.5 0.5 0.5 0.5 0.5 0.5 0.5 0.5 0.5 0.5 0.5 0.5 0.5 0.114467 0.885533 0.118227 0.881773 0.5 0.5 0.5 0.5 0.5 0.5 0.5 0.5 0.5 0.5 0.5 0.5 0.5 0.5 0.5 0.5 0.181884 0.8181160000000001 0.0327629 0.9672371 0.689157 0.310843 0.238045 0.7619549999999999 0.215061 0.784939 0.802403 0.19759700000000002 0.2303 0.7697 0.236268 0.763732 0.5 0.5 0.5 0.5 0.5 0.5 0.5 0.5 0.5 0.5 0.5 0.5 0.5 0.5 0.5 0.5 0.722808 0.277192 0.932455 0.06754499999999997 0.457437 0.542563 0.433349 0.566651 0.5 0.5 0.5 0.5 0.5 0.5 0.5 0.5 0.5 0.5 0.5 0.5 0.5 0.5 0.5 0.5 0.143868 0.856132 0.366859 0.633141 0.786014 0.213986 0.374168 0.6258319999999999 0.5 0.5 0.5 0.5 0.5 0.5 0.5 0.5 0.5 0.5 0.5 0.5 0.5 0.5 0.5 0.5 0.5 0.5 0.5 0.5 0.5 0.5 0.5 0.5 0.5 0.5 0.5 0.5 0.5 0.5 0.5 0.5 0.5 0.5 0.5 0.5 0.752702 0.24729800000000002 0.15119 0.8488100000000001 0.881992 0.118008 0.89657 0.10343000000000002 0.5 0.5 0.5 0.5 0.5 0.5 0.5 0.5 0.394504 0.605496 0.768712 0.23128800000000005 0.552269 0.447731 0.676881 0.32311900000000005 0.993564 0.006435999999999997 0.953399 0.046601000000000004 0.79642 0.20357999999999998 0.262551 0.737449 0.571372 0.428628 0.988974 0.01102599999999998 0.385399 0.614601 0.571785 0.428215 0.5 0.5 0.5 0.5 0.5 0.5 0.5 0.5 0.5 0.5 0.5 0.5 0.5 0.5 0.5 0.5 0.77717 0.22282999999999997 0.179302 0.820698 0.109887 0.890113 0.898346 0.10165400000000002 0.5 0.5 0.5 0.5 0.5 0.5 0.5 0.5 0.5 0.5 0.5 0.5 0.5 0.5 0.5 0.5 0.396046 0.603954 0.727682 0.27231799999999995 0.261255 0.738745 0.967831 0.032169 0.5 0.5 0.5 0.5 0.5 0.5 0.5 0.5 0.5 0.5 0.5 0.5 0.5 0.5 0.5 0.5 0.5 0.5 0.5 0.5 0.5 0.5 0.5 0.5 0.5 0.5 0.5 0.5 0.5 0.5 0.5 0.5 0.5 0.5 0.5 0.5 0.304645 0.695355 0.589488 0.410512 0.65227 0.34773 0.180501 0.819499 0.379952 0.6200479999999999 0.441756 0.558244 0.953365 0.04663499999999998 0.68574 0.31426 0.5 0.5 0.5 0.5 0.5 0.5 0.5 0.5 0.5 0.5 0.5 0.5 0.5 0.5 0.5 0.5 0.922374 0.07762599999999997 0.532156 0.46784400000000004 0.99697 0.003029999999999977 0.584601 0.41539899999999996 0.5 0.5 0.5 0.5 0.5 0.5 0.5 0.5 0.5 0.5 0.5 0.5 0.5 0.5 0.5 0.5 0.5 0.5 0.5 0.5 0.5 0.5 0.5 0.5 0.5 0.5 0.5 0.5 0.5 0.5 0.5 0.5 0.666802 0.333198 0.21261 0.78739 0.515574 0.484426 0.232568 0.767432 0.5 0.5 0.5 0.5 0.5 0.5 0.5 0.5 0.5 0.5 0.5 0.5 0.0607025 0.9392975 0.66377 0.33623000000000003 0.589601 0.41039899999999996 0.146676 0.853324 0.5 0.5 0.5 0.5 0.5 0.5 0.5 0.5 0.5 0.5 0.5 0.5 0.5 0.5 0.5 0.5 0.741589 0.25841099999999995 0.696288 0.303712 0.398557 0.601443 0.599714 0.40028600000000003 0.5 0.5 0.5 0.5 0.5 0.5 0.5 0.5 0.5 0.5 0.5 0.5 0.5 0.5 0.5 0.5 0.5 0.5 0.5 0.5 0.5 0.5 0.5 0.5 0.5 0.5 0.5 0.5 0.5 0.5 0.5 0.5 0.5 0.5 0.5 0.5 0.5 0.5 0.5 0.5 0.456941 0.543059 0.787526 0.21247400000000005 0.441588 0.558412 0.82003 0.17996999999999996 0.5 0.5 0.5 0.5 0.5 0.5 0.5 0.5 0.5 0.5 0.5 0.5 0.5 0.5 0.5 0.5 0.5 0.5 0.5 0.5 0.5 0.5 0.5 0.5 0.5 0.5 0.5 0.5 0.5 0.5 0.5 0.5 0.5 0.5 0.5 0.5 0.5 0.5 0.5 0.5 0.5 0.5 0.5 0.5 0.5 0.5 0.5 0.5 0.5 0.5 0.5 0.5 0.5 0.5 0.5 0.5 0.5 0.5 0.5 0.5 0.5 0.5 0.5 0.5 0.5 0.5 0.5 0.5 0.5 0.5 0.5 0.5 0.5 0.5 0.5 0.5 0.176255 0.823745 0.992501 0.007499000000000033 0.267244 0.732756 0.703785 0.296215 0.5 0.5 0.5 0.5 0.5 0.5 0.5 0.5 0.817752 0.18224799999999997 0.812484 0.18751600000000002 0.252047 0.747953 0.207525 0.792475 0.5 0.5 0.5 0.5 0.5 0.5 0.5 0.5 0.39838 0.60162 0.147515 0.8524849999999999 0.395837 0.604163 0.747566 0.25243400000000005 0.5 0.5 0.5 0.5 0.5 0.5 0.5 0.5
-1 -197 2 0
-1 197 -2 0
1 -198 2 0
1 198 -2 0
-2 3 0
2 -3 0
-3 -201 4 0
-3 201 -4 0
3 -202 4 0
3 202 -4 0
-4 5 0
4 -5 0
-5 -205 6 0
-5 205 -6 0
5 -206 6 0
5 206 -6 0
-6 -7 0
6 7 0
-7 8 0
7 -8 0
-8 -9 0
8 9 0
-9 -10 0
9 10 0
-10 -11 0
10 11 0
-11 -217 12 0
-11 217 -12 0
11 -218 12 0
11 218 -12 0
-12 13 0
12 -13 0
-13 -221 14 0
-13 221 -14 0
13 -222 14 0
13 222 -14 0
-1 15 0
1 -15 0
-15 -2 -225 16 0
-15 -2 225 -16 0
-15 2 -226 16 0
-15 2 226 -16 0
15 -2 -227 16 0
15 -2 227 -16 0
15 2 -228 16 0
15 2 228 -16 0
-16 -3 -17 0
-16 3 17 0
16 -3 -17 0
16 3 -17 0
-17 -4 18 0
-17 4 -18 0
17 -4 18 0
17 4 18 0
-18 -5 -19 0
-18 5 19 0
18 -5 19 0
18 5 19 0
-19 -6 20 0
-19 6 20 0
19 -6 -20 0
19 6 -20 0
-20 -7 21 0
-20 7 -21 0
20 -7 -21 0
20 7 21 0
-21 -8 22 0
-21 8 22 0
21 -8 -22 0
21 8 22 0
-22 -9 -23 0
-22 9 23 0
22 -9 -23 0
22 9 23 0
-23 -10 -24 0
-23 10 24 0
23 -10 -24 0
23 10 -24 0
-24 -11 -25 0
-24 11 25 0
24 -11 -25 0
24 11 25 0
-25 -12 -265 26 0
-25 -12 265 -26 0
-25 12 -266 26 0
-25 12 266 -26 0
25 -12 -267 26 0
25 -12 267 -26 0
25 12 -268 26 0
25 12 268 -26 0
-26 -13 -27 0
-26 13 -27 0
26 -13 27 0
26 13 -27 0
-27 -14 28 0
-27 14 -28 0
27 -14 28 0
27 14 -28 0
-15 -29 0
15 29 0
-29 -16 -30 0
-29 16 -30 0
29 -16 30 0
29 16 -30 0
-30 -17 31 0
-30 17 -31 0
30 -17 -31 0
30 17 31 0
-31 -18 32 0
-31 18 -32 0
31 -18 32 0
31 18 -32 0
-32 -19 -33 0
-32 19 -33 0
32 -19 -33 0
32 19 33 0
-33 -20 -34 0
-33 20 34 0
33 -20 -34 0
33 20 34 0
-34 -21 -35 0
-34 21 -35 0
34 -21 -35 0
34 21 35 0
-35 -22 -36 0
-35 22 36 0
35 -22 36 0
35 22 36 0
-36 -23 -37 0
-36 23 -37 0
36 -23 -37 0
36 23 37 0
-37 -24 38 0
-37 24 -38 0
37 -24 38 0
37 24 -38 0
-38 -25 -39 0
-38 25 39 0
38 -25 -39 0
38 25 -39 0
-39 -26 -319 40 0
-39 -26 319 -40 0
-39 26 -320 40 0
-39 26 320 -40 0
39 -26 -321 40 0
39 -26 321 -40 0
39 26 -322 40 0
39 26 322 -40 0
-40 -27 41 0
-40 27 41 0
40 -27 -41 0
40 27 41 0
-41 -28 42 0
-41 28 42 0
41 -28 -42 0
41 28 -42 0
-29 -43 0
29 43 0
-43 -30 44 0
-43 30 -44 0
43 -30 -44 0
43 30 44 0
-44 -31 -45 0
-44 31 -45 0
44 -31 45 0
44 31 -45 0
-45 -32 -46 0
-45 32 46 0
45 -32 -46 0
45 32 -46 0
-46 -33 -47 0
-46 33 47 0
46 -33 -47 0
46 33 -47 0
-47 -34 48 0
-47 34 -48 0
47 -34 48 0
47 34 48 0
-48 -35 -353 49 0
-48 -35 353 -49 0
-48 35 -354 49 0
-48 35 354 -49 0
48 -35 -355 49 0
48 -35 355 -49 0
48 35 -356 49 0
48 35 356 -49 0
-49 -36 -50 0
-49 36 50 0
49 -36 50 0
49 36 -50 0
-50 -37 -51 0
-50 37 -51 0
50 -37 51 0
50 37 -51 0
-51 -38 52 0
-51 38 -52 0
51 -38 -52 0
51 38 -52 0
-52 -39 53 0
-52 39 -53 0
52 -39 -53 0
52 39 53 0
-53 -40 54 0
-53 40 -54 0
53 -40 -54 0
53 40 -54 0
-54 -41 55 0
-54 41 55 0
54 -41 55 0
54 41 -55 0
-55 -42 56 0
-55 42 56 0
55 -42 -56 0
55 42 -56 0
-43 57 0
43 -57 0
-57 -44 -58 0
-57 44 58 0
57 -44 58 0
57 44 -58 0
-58 -45 59 0
-58 45 -59 0
58 -45 -59 0
58 45 59 0
-59 -46 60 0
-59 46 -60 0
59 -46 60 0
59 46 -60 0
-60 -47 61 0
-60 47 -61 0
60 -47 61 0
60 47 61 0
-61 -48 -62 0
-61 48 -62 0
61 -48 62 0
61 48 62 0
-62 -49 -63 0
-62 49 -63 0
62 -49 63 0
62 49 -63 0
-63 -50 -64 0
-63 50 -64 0
63 -50 -64 0
63 50 64 0
-64 -51 65 0
-64 51 65 0
64 -51 -65 0
64 51 -65 0
-65 -52 66 0
-65 52 66 0
65 -52 -66 0
65 52 -66 0
-66 -53 67 0
-66 53 67 0
66 -53 67 0
66 53 -67 0
-67 -54 -427 68 0
-67 -54 427 -68 0
-67 54 -428 68 0
-67 54 428 -68 0
67 -54 -429 68 0
67 -54 429 -68 0
67 54 -430 68 0
67 54 430 -68 0
-68 -55 -69 0
-68 55 69 0
68 -55 -69 0
68 55 69 0
-69 -56 -435 70 0
-69 -56 435 -70 0
-69 56 -436 70 0
-69 56 436 -70 0
69 -56 -437 70 0
69 -56 437 -70 0
69 56 -438 70 0
69 56 438 -70 0
-57 -71 0
57 71 0
-71 -58 -72 0
-71 58 72 0
71 -58 72 0
71 58 -72 0
-72 -59 -445 73 0
-72 -59 445 -73 0
-72 59 -446 73 0
-72 59 446 -73 0
72 -59 -447 73 0
72 -59 447 -73 0
72 59 -448 73 0
72 59 448 -73 0
-73 -60 74 0
-73 60 -74 0
73 -60 -74 0
73 60 -74 0
-74 -61 75 0
-74 61 -75 0
74 -61 75 0
74 61 -75 0
-75 -62 -457 76 0
-75 -62 457 -76 0
-75 62 -458 76 0
-75 62 458 -76 0
75 -62 -459 76 0
75 -62 459 -76 0
75 62 -460 76 0
75 62 460 -76 0
-76 -63 77 0
-76 63 -77 0
76 -63 77 0
76 63 -77 0
-77 -64 -465 78 0
-77 -64 465 -78 0
-77 64 -466 78 0
-77 64 466 -78 0
77 -64 -467 78 0
77 -64 467 -78 0
77 64 -468 78 0
77 64 468 -78 0
-78 -65 79 0
-78 65 79 0
78 -65 -79 0
78 65 79 0
-79 -66 -473 80 0
-79 -66 473 -80 0
-79 66 -474 80 0
-79 66 474 -80 0
79 -66 -475 80 0
79 -66 475 -80 0
79 66 -476 80 0
79 66 476 -80 0
-80 -67 81 0
-80 67 81 0
80 -67 -81 0
80 67 81 0
-81 -68 -481 82 0
-81 -68 481 -82 0
-81 68 -482 82 0
-81 68 482 -82 0
81 -68 -483 82 0
81 -68 483 -82 0
81 68 -484 82 0
81 68 484 -82 0
-82 -69 83 0
-82 69 -83 0
82 -69 83 0
82 69 -83 0
-83 -70 84 0
-83 70 -84 0
83 -70 -84 0
83 70 84 0
-71 -85 0
71 85 0
-85 -72 -86 0
-85 72 86 0
85 -72 86 0
85 72 86 0
-86 -73 -87 0
-86 73 -87 0
86 -73 87 0
86 73 87 0
-87 -74 88 0
-87 74 88 0
87 -74 -88 0
87 74 88 0
-88 -75 -89 0
-88 75 89 0
88 -75 -89 0
88 75 89 0
-89 -76 -90 0
-89 76 -90 0
89 -76 -90 0
89 76 90 0
-90 -77 91 0
-90 77 -91 0
90 -77 91 0
90 77 -91 0
-91 -78 92 0
-91 78 -92 0
91 -78 92 0
91 78 -92 0
-92 -79 -523 93 0
-92 -79 523 -93 0
-92 79 -524 93 0
-92 79 524 -93 0
92 -79 -525 93 0
92 -79 525 -93 0
92 79 -526 93 0
92 79 526 -93 0
-93 -80 -527 94 0
-93 -80 527 -94 0
-93 80 -528 94 0
-93 80 528 -94 0
93 -80 -529 94 0
93 -80 529 -94 0
93 80 -530 94 0
93 80 530 -94 0
-94 -81 -95 0
-94 81 95 0
94 -81 -95 0
94 81 -95 0
-95 -82 96 0
-95 82 -96 0
95 -82 96 0
95 82 96 0
-96 -83 97 0
-96 83 -97 0
96 -83 -97 0
96 83 -97 0
-97 -84 -98 0
-97 84 -98 0
97 -84 -98 0
97 84 98 0
-85 99 0
85 -99 0
-99 -86 100 0
-99 86 100 0
99 -86 100 0
99 86 -100 0
-100 -87 101 0
-100 87 -101 0
100 -87 101 0
100 87 101 0
-101 -88 102 0
-101 88 102 0
101 -88 -102 0
101 88 -102 0
-102 -89 103 0
-102 89 -103 0
102 -89 103 0
102 89 103 0
-103 -90 104 0
-103 90 104 0
103 -90 104 0
103 90 -104 0
-104 -91 105 0
-104 91 -105 0
104 -91 105 0
104 91 -105 0
-105 -92 -106 0
-105 92 106 0
105 -92 106 0
105 92 -106 0
-106 -93 -577 107 0
-106 -93 577 -107 0
-106 93 -578 107 0
-106 93 578 -107 0
106 -93 -579 107 0
106 -93 579 -107 0
106 93 -580 107 0
106 93 580 -107 0
-107 -94 -581 108 0
-107 -94 581 -108 0
-107 94 -582 108 0
-107 94 582 -108 0
107 -94 -583 108 0
107 -94 583 -108 0
107 94 -584 108 0
107 94 584 -108 0
-108 -95 -109 0
-108 95 -109 0
108 -95 109 0
108 95 109 0
-109 -96 110 0
-109 96 -110 0
109 -96 110 0
109 96 -110 0
-110 -97 111 0
-110 97 111 0
110 -97 -111 0
110 97 -111 0
-111 -98 112 0
-111 98 -112 0
111 -98 112 0
111 98 -112 0
-99 -601 113 0
-99 601 -113 0
99 -602 113 0
99 602 -113 0
-113 -100 -114 0
-113 100 -114 0
113 -100 -114 0
113 100 114 0
-114 -101 -607 115 0
-114 -101 607 -115 0
-114 101 -608 115 0
-114 101 608 -115 0
114 -101 -609 115 0
114 -101 609 -115 0
114 101 -610 115 0
114 101 610 -115 0
-115 -102 116 0
-115 102 -116 0
115 -102 116 0
115 102 -116 0
-116 -103 -117 0
-116 103 -117 0
116 -103 117 0
116 103 117 0
-117 -104 118 0
-117 104 118 0
117 -104 118 0
117 104 -118 0
-118 -105 119 0
-118 105 119 0
118 -105 -119 0
118 105 -119 0
-119 -106 120 0
-119 106 -120 0
119 -106 -120 0
119 106 -120 0
-120 -107 -631 121 0
-120 -107 631 -121 0
-120 107 -632 121 0
-120 107 632 -121 0
120 -107 -633 121 0
120 -107 633 -121 0
120 107 -634 121 0
120 107 634 -121 0
-121 -108 -635 122 0
-121 -108 635 -122 0
-121 108 -636 122 0
-121 108 636 -122 0
121 -108 -637 122 0
121 -108 637 -122 0
121 108 -638 122 0
121 108 638 -122 0
-122 -109 123 0
-122 109 123 0
122 -109 123 0
122 109 -123 0
-123 -110 -643 124 0
-123 -110 643 -124 0
-123 110 -644 124 0
-123 110 644 -124 0
123 -110 -645 124 0
123 -110 645 -124 0
123 110 -646 124 0
123 110 646 -124 0
-124 -111 125 0
-124 111 -125 0
124 -111 -125 0
124 111 -125 0
-125 -112 -126 0
-125 112 126 0
125 -112 126 0
125 112 -126 0
-113 -655 127 0
-113 655 -127 0
113 -656 127 0
113 656 -127 0
-127 -114 -128 0
-127 114 -128 0
127 -114 128 0
127 114 128 0
-128 -115 -129 0
-128 115 -129 0
128 -115 129 0
128 115 129 0
-129 -116 -665 130 0
-129 -116 665 -130 0
-129 116 -666 130 0
-129 116 666 -130 0
129 -116 -667 130 0
129 -116 667 -130 0
129 116 -668 130 0
129 116 668 -130 0
-130 -117 -669 131 0
-130 -117 669 -131 0
-130 117 -670 131 0
-130 117 670 -131 0
130 -117 -671 131 0
130 -117 671 -131 0
130 117 -672 131 0
130 117 672 -131 0
-131 -118 132 0
-131 118 132 0
131 -118 -132 0
131 118 -132 0
-132 -119 -133 0
-132 119 -133 0
132 -119 133 0
132 119 -133 0
-133 -120 -681 134 0
-133 -120 681 -134 0
-133 120 -682 134 0
-133 120 682 -134 0
133 -120 -683 134 0
133 -120 683 -134 0
133 120 -684 134 0
133 120 684 -134 0
-134 -121 -135 0
-134 121 135 0
134 -121 135 0
134 121 -135 0
-135 -122 -136 0
-135 122 136 0
135 -122 136 0
135 122 -136 0
-136 -123 -693 137 0
-136 -123 693 -137 0
-136 123 -694 137 0
-136 123 694 -137 0
136 -123 -695 137 0
136 -123 695 -137 0
136 123 -696 137 0
136 123 696 -137 0
-137 -124 138 0
-137 124 138 0
137 -124 138 0
137 124 -138 0
-138 -125 139 0
-138 125 -139 0
138 -125 139 0
138 125 -139 0
-139 -126 140 0
-139 126 -140 0
139 -126 -140 0
139 126 -140 0
-127 141 0
127 -141 0
-141 -128 142 0
-141 128 142 0
141 -128 -142 0
141 128 -142 0
-142 -129 -715 143 0
-142 -129 715 -143 0
-142 129 -716 143 0
-142 129 716 -143 0
142 -129 -717 143 0
142 -129 717 -143 0
142 129 -718 143 0
142 129 718 -143 0
-143 -130 -144 0
-143 130 -144 0
143 -130 144 0
143 130 144 0
-144 -131 -723 145 0
-144 -131 723 -145 0
-144 131 -724 145 0
-144 131 724 -145 0
144 -131 -725 145 0
144 -131 725 -145 0
144 131 -726 145 0
144 131 726 -145 0
-145 -132 -727 146 0
-145 -132 727 -146 0
-145 132 -728 146 0
-145 132 728 -146 0
145 -132 -729 146 0
145 -132 729 -146 0
145 132 -730 146 0
145 132 730 -146 0
-146 -133 -731 147 0
-146 -133 731 -147 0
-146 133 -732 147 0
-146 133 732 -147 0
146 -133 -733 147 0
146 -133 733 -147 0
146 133 -734 147 0
146 133 734 -147 0
-147 -134 -148 0
-147 134 -148 0
147 -134 148 0
147 134 148 0
-148 -135 149 0
-148 135 -149 0
148 -135 -149 0
148 135 149 0
-149 -136 -743 150 0
-149 -136 743 -150 0
-149 136 -744 150 0
-149 136 744 -150 0
149 -136 -745 150 0
149 -136 745 -150 0
149 136 -746 150 0
149 136 746 -150 0
-150 -137 151 0
-150 137 151 0
150 -137 151 0
150 137 -151 0
-151 -138 -152 0
-151 138 152 0
151 -138 152 0
151 138 152 0
-152 -139 -755 153 0
-152 -139 755 -153 0
-152 139 -756 153 0
-152 139 756 -153 0
152 -139 -757 153 0
152 -139 757 -153 0
152 139 -758 153 0
152 139 758 -153 0
-153 -140 -154 0
-153 140 -154 0
153 -140 154 0
153 140 154 0
-141 -155 0
141 155 0
-155 -142 -156 0
-155 142 156 0
155 -142 -156 0
155 142 -156 0
-156 -143 -157 0
-156 143 -157 0
156 -143 157 0
156 143 157 0
-157 -144 -158 0
-157 144 -158 0
157 -144 158 0
157 144 158 0
-158 -145 -777 159 0
-158 -145 777 -159 0
-158 145 -778 159 0
-158 145 778 -159 0
158 -145 -779 159 0
158 -145 779 -159 0
158 145 -780 159 0
158 145 780 -159 0
-159 -146 -781 160 0
-159 -146 781 -160 0
-159 146 -782 160 0
-159 146 782 -160 0
159 -146 -783 160 0
159 -146 783 -160 0
159 146 -784 160 0
159 146 784 -160 0
-160 -147 -161 0
-160 147 161 0
160 -147 161 0
160 147 -161 0
-161 -148 162 0
-161 148 -162 0
161 -148 -162 0
161 148 162 0
-162 -149 -793 163 0
-162 -149 793 -163 0
-162 149 -794 163 0
-162 149 794 -163 0
162 -149 -795 163 0
162 -149 795 -163 0
162 149 -796 163 0
162 149 796 -163 0
-163 -150 -164 0
-163 150 164 0
163 -150 164 0
163 150 164 0
-164 -151 -165 0
-164 151 -165 0
164 -151 165 0
164 151 -165 0
-165 -152 166 0
-165 152 -166 0
165 -152 166 0
165 152 166 0
-166 -153 -167 0
-166 153 167 0
166 -153 167 0
166 153 167 0
-167 -154 -813 168 0
-167 -154 813 -168 0
-167 154 -814 168 0
-167 154 814 -168 0
167 -154 -815 168 0
167 -154 815 -168 0
167 154 -816 168 0
167 154 816 -168 0
-155 -169 0
155 169 0
-169 -156 170 0
-169 156 170 0
169 -156 170 0
169 156 -170 0
-170 -157 -823 171 0
-170 -157 823 -171 0
-170 157 -824 171 0
-170 157 824 -171 0
170 -157 -825 171 0
170 -157 825 -171 0
170 157 -826 171 0
170 157 826 -171 0
-171 -158 172 0
-171 158 172 0
171 -158 172 0
171 158 -172 0
-172 -159 173 0
-172 159 -173 0
172 -159 -173 0
172 159 -173 0
-173 -160 -835 174 0
-173 -160 835 -174 0
-173 160 -836 174 0
-173 160 836 -174 0
173 -160 -837 174 0
173 -160 837 -174 0
173 160 -838 174 0
173 160 838 -174 0
-174 -161 -175 0
-174 161 175 0
174 -161 175 0
174 161 -175 0
-175 -162 176 0
-175 162 176 0
175 -162 -176 0
175 162 176 0
-176 -163 -177 0
-176 163 -177 0
176 -163 177 0
176 163 -177 0
-177 -164 -178 0
-177 164 178 0
177 -164 178 0
177 164 178 0
-178 -165 179 0
-178 165 -179 0
178 -165 179 0
178 165 179 0
-179 -166 -859 180 0
-179 -166 859 -180 0
-179 166 -860 180 0
-179 166 860 -180 0
179 -166 -861 180 0
179 -166 861 -180 0
179 166 -862 180 0
179 166 862 -180 0
-180 -167 -181 0
-180 167 181 0
180 -167 -181 0
180 167 -181 0
-181 -168 -182 0
-181 168 182 0
181 -168 -182 0
181 168 -182 0
-169 -183 0
169 183 0
-183 -170 -184 0
-183 170 -184 0
183 -170 -184 0
183 170 184 0
-184 -171 185 0
-184 171 -185 0
184 -171 185 0
184 171 -185 0
-185 -172 -186 0
-185 172 186 0
185 -172 -186 0
185 172 -186 0
-186 -173 -187 0
-186 173 187 0
186 -173 -187 0
186 173 -187 0
-187 -174 188 0
-187 174 -188 0
187 -174 188 0
187 174 188 0
-188 -175 189 0
-188 175 -189 0
188 -175 189 0
188 175 189 0
-189 -176 190 0
-189 176 -190 0
189 -176 190 0
189 176 190 0
-190 -177 -901 191 0
-190 -177 901 -191 0
-190 177 -902 191 0
-190 177 902 -191 0
190 -177 -903 191 0
190 -177 903 -191 0
190 177 -904 191 0
190 177 904 -191 0
-191 -178 192 0
-191 178 -192 0
191 -178 192 0
191 178 192 0
-192 -179 -909 193 0
-192 -179 909 -193 0
-192 179 -910 193 0
-192 179 910 -193 0
192 -179 -911 193 0
192 -179 911 -193 0
192 179 -912 193 0
192 179 912 -193 0
-193 -180 194 0
-193 180 -194 0
193 -180 194 0
193 180 194 0
-194 -181 -917 195 0
-194 -181 917 -195 0
-194 181 -918 195 0
-194 181 918 -195 0
194 -181 -919 195 0
194 -181 919 -195 0
194 181 -920 195 0
194 181 920 -195 0
-195 -182 -196 0
-195 182 196 0
195 -182 196 0
195 182 196 0
196 0
