data/benchmarks/bayes/75-14-3-q.gr
p tw 924 1029
194 917
67 68
177 190
26 268
99 100
26 39
136 149
59 73
159 160
170 825
8 9
35 353
118 131
40 41
77 90
131 726
163 795
100 101
179 910
132 133
146 733
92 106
107 634
143 718
192 193
41 42
151 164
73 74
110 123
33 47
67 427
133 134
142 718
173 835
125 139
51 64
129 667
74 75
106 107
149 743
143 156
66 80
174 836
115 610
110 644
159 784
166 167
15 16
47 48
158 172
179 860
7 21
167 815
6 205
107 108
122 636
150 744
99 113
48 49
180 861
62 460
80 81
40 54
81 482
146 728
132 146
117 670
81 82
40 319
94 528
25 38
190 901
13 222
73 87
173 174
66 475
120 684
22 23
16 227
70 436
165 179
59 445
14 28
114 115
68 484
159 779
106 120
93 577
142 717
55 56
108 584
193 911
26 267
47 61
80 476
147 148
123 694
73 446
139 153
79 526
131 725
163 794
99 602
152 757
49 354
80 94
145 727
107 633
1 197
172 186
121 635
181 182
129 666
173 187
84 97
15 226
176 189
110 643
159 783
77 466
158 171
179 859
117 130
122 635
107 583
160 836
21 22
147 161
58 71
180 860
62 459
116 668
113 114
150 163
162 793
132 145
54 55
91 104
117 669
94 527
25 266
154 816
146 147
67 430
158 777
39 322
32 45
120 683
70 435
165 178
87 88
124 137
181 918
68 483
159 778
179 180
106 119
131 670
65 78
142 716
114 608
88 89
157 826
120 121
80 475
157 170
107 578
193 910
6 19
123 693
180 181
144 725
73 445
29 30
139 152
177 902
61 62
79 525
98 111
133 734
21 35
99 601
4 202
121 122
120 633
49 353
80 93
152 756
2 3
113 127
39 52
145 726
153 154
62 63
172 185
94 95
131 144
54 68
121 634
13 27
93 526
3 4
35 36
146 160
72 85
105 119
95 96
15 225
127 128
164 177
139 758
87 101
187 188
46 60
159 782
36 37
77 465
68 69
179 193
28 42
124 644
128 129
160 161
11 218
54 427
107 582
120 134
160 835
79 93
69 70
101 102
116 667
61 75
161 162
20 34
10 11
153 167
145 730
146 784
64 467
2 16
102 103
192 909
25 265
94 108
121 638
194 195
39 321
76 459
53 67
43 44
93 530
35 49
135 136
134 684
69 438
181 917
68 482
127 141
38 51
131 669
86 100
76 77
114 607
168 816
82 484
157 825
68 82
193 909
107 577
27 41
177 901
144 724
160 174
133 733
137 694
72 448
4 201
101 115
120 632
12 25
60 74
162 796
145 725
113 602
48 356
101 609
1 15
121 633
13 26
93 525
147 734
158 780
136 743
105 118
139 757
106 580
9 10
79 474
46 59
132 727
138 151
124 643
19 32
107 581
108 635
75 458
79 92
134 135
171 184
2 226
20 33
130 668
146 783
75 76
64 466
112 125
68 427
16 17
53 66
76 458
93 529
94 583
108 109
145 158
134 683
69 437
123 646
129 717
160 784
149 793
49 50
86 99
168 815
109 110
195 918
82 483
178 191
27 40
92 524
54 430
50 51
26 322
144 723
82 83
171 826
119 132
42 56
137 693
72 447
142 143
191 902
120 631
23 24
134 148
60 73
130 672
83 84
48 355
113 601
115 116
101 608
152 165
14 222
75 89
175 176
192 912
34 48
24 25
93 524
147 733
93 106
16 30
116 117
108 122
139 756
166 859
106 579
67 81
79 473
57 58
133 682
167 168
89 90
126 139
153 758
49 63
159 173
149 150
8 22
30 31
2 198
75 457
100 114
90 91
82 96
2 225
41 55
31 32
141 142
130 667
12 266
23 37
64 465
123 124
133 147
145 777
115 129
78 467
74 88
64 65
94 582
174 175
56 70
166 180
156 157
15 29
5 6
123 645
129 716
160 783
59 72
107 121
97 98
170 824
132 730
167 181
195 917
82 482
89 103
189 190
48 62
179 909
148 149
92 523
146 732
26 321
80 530
30 44
92 105
143 717
140 154
171 825
191 901
72 446
33 46
56 438
81 95
136 696
141 155
48 354
125 138
101 607
22 36
68 430
122 123
34 47
147 732
66 79
174 835
115 609
114 128
174 188
194 920
7 20
167 814
55 69
150 743
67 80
133 681
153 757
35 356
159 172
8 21
40 53
81 481
146 727
2 197
63 64
100 113
148 162
4 5
41 54
13 221
73 86
12 265
66 474
173 838
133 146
16 226
181 195
14 27
37 38
78 466
74 87
149 746
122 136
166 179
108 583
26 266
47 60
160 782
107 120
170 823
130 131
167 180
131 724
163 793
11 12
48 61
146 731
80 529
107 632
143 716
140 153
163 164
40 322
44 45
56 437
81 94
136 695
190 904
129 665
173 186
145 780
22 35
59 448
155 156
115 608
114 127
137 138
93 580
174 187
96 97
194 919
18 19
167 813
55 68
88 102
188 189
147 160
153 756
35 355
170 171
62 458
29 43
180 859
129 130
180 194
121 135
111 112
148 161
62 76
162 163
154 815
67 429
66 473
120 682
154 168
144 145
16 225
3 17
173 837
103 104
181 194
5 206
95 109
85 86
149 745
122 135
159 777
195 196
110 646
155 169
142 715
177 178
36 50
179 862
108 582
136 137
26 265
80 474
96 110
122 638
128 142
118 119
77 78
79 524
131 723
21 34
69 83
152 755
169 170
81 484
129 143
161 175
107 631
151 152
10 24
110 111
117 672
40 321
54 67
94 530
102 116
190 903
51 52
162 176
146 159
70 438
43 57
143 144
59 447
113 656
103 117
87 100
135 149
159 781
93 579
179 192
28 41
76 90
88 101
11 217
136 150
120 133
123 696
168 182
73 448
180 193
62 457
116 666
77 91
61 74
12 218
49 356
121 134
169 183
153 166
145 729
2 15
25 26
62 75
110 124
94 107
154 814
67 428
121 637
39 320
120 681
154 167
173 836
3 16
51 65
35 48
15 228
5 205
95 108
17 18
68 481
149 744
143 157
110 645
9 23
77 468
36 49
179 861
157 824
68 81
80 473
128 141
160 173
160 838
79 523
133 732
69 82
101 114
162 795
145 724
161 174
10 23
117 671
94 529
25 268
102 115
121 632
158 779
70 437
113 655
176 177
135 148
181 920
159 780
131 672
17 31
117 118
114 610
76 89
109 123
193 912
107 580
58 59
123 695
168 181
177 904
73 447
127 656
191 192
50 64
116 665
150 151
152 758
12 217
49 355
142 156
91 92
145 728
146 782
1 198
83 97
183 184
154 813
32 33
121 636
39 319
76 457
93 528
165 166
175 189
24 38
136 746
124 125
84 98
134 682
15 227
69 436
116 130
65 66
176 190
9 22
77 467
57 71
168 814
157 158
157 823
6 7
124 646
117 131
149 163
139 140
54 429
107 584
108 638
160 837
133 731
58 72
42 55
90 104
190 191
39 40
150 164
134 147
162 794
145 723
172 173
130 671
31 45
182 196
131 132
91 105
14 221
75 88
123 137
192 911
25 267
121 631
93 523
72 73
158 778
32 46
16 29
64 78
164 165
124 138
108 121
139 755
156 170
106 578
181 919
5 19
149 796
131 671
17 30
65 79
49 62
114 609
97 111
109 122
157 171
107 579
6 20
177 903
144 726
127 655
50 63
98 112
82 95
137 696
120 634
142 155
130 666
39 53
23 36
146 781
83 96
131 145
115 128
93 527
94 581
175 188
24 37
136 745
72 86
56 69
134 681
69 435
123 644
38 39
116 129
129 715
164 178
166 862
79 476
132 729
168 813
82 481
89 102
124 645
149 162
71 72
54 428
108 637
26 320
75 460
30 43
171 824
63 77
72 445
90 103
12 13
2 228
4 18
182 195
3 202
104 105
31 44
48 353
130 670
64 468
68 429
13 14
123 136
192 910
45 46
147 731
105 106
37 51
76 460
64 77
46 47
156 169
106 577
78 79
5 18
149 795
38 52
138 139
70 84
97 110
195 920
19 20
130 144
179 912
79 80
11 25
92 526
71 85
171 172
20 21
137 695
191 904
52 53
163 177
12 26
130 665
44 58
104 118
101 610
53 54
78 465
174 838
45 59
145 146
136 744
26 27
137 151
123 643
160 781
150 746
86 87
18 32
166 861
79 475
133 684
78 92
132 728
178 179
27 28
138 152
170 184
146 730
19 33
108 636
119 120
26 319
75 459
80 528
143 715
171 823
63 76
111 125
60 61
171 185
2 227
56 436
136 694
4 17
3 201
52 66
12 268
130 669
152 153
1 2
112 126
145 779
68 428
144 158
93 94
115 607
94 584
37 50
85 99
185 186
194 918
145 159
177 191
129 718
26 40
149 794
170 826
70 83
35 354
118 132
153 755
186 187
195 919
130 143
163 796
178 192
179 911
11 24
92 525
146 734
119 133
151 165
191 903
163 176
44 57
104 117
129 668
152 166
174 837
45 58
93 107
193 194
108 581
137 150
59 60
167 816
6 206
96 109
122 637
18 31
150 745
166 860
133 683
78 91
126 140
180 862
170 183
92 93
81 483
129 142
146 729
80 527
184 185
111 124
33 34
40 320
56 435
25 39
136 693
125 126
190 902
52 65
162 175
12 267
66 476
16 228
145 778
34 35
144 157
59 446
66 67
103 116
78 468
158 159
93 578
7 8
